NAME          DCAP_2_4_3_500_SS328
ROWS
 N  OBJ
 L  CON1
 L  CON2
 L  CON3
 L  CON4
 L  CON5
 L  CON6
 L  CON7
 L  CON8
 L  CON9
 L  CON10
 L  CON11
 L  CON12
 E  CON13
 E  CON14
 E  CON15
 E  CON16
 E  CON17
 E  CON18
 E  CON19
 E  CON20
 E  CON21
 E  CON22
 E  CON23
 E  CON24
COLUMNS
    x[1,1]    OBJ       6.180167      CON1      1.000000    
    x[1,1]    CON7      -1.000000     CON8      -1.000000   
    x[1,1]    CON9      -1.000000   
    x[1,2]    OBJ       6.563535      CON2      1.000000    
    x[1,2]    CON8      -1.000000     CON9      -1.000000   
    x[1,3]    OBJ       7.443064      CON3      1.000000    
    x[1,3]    CON9      -1.000000   
    x[2,1]    OBJ       6.732585      CON4      1.000000    
    x[2,1]    CON10     -1.000000     CON11     -1.000000   
    x[2,1]    CON12     -1.000000   
    x[2,2]    OBJ       5.039546      CON5      1.000000    
    x[2,2]    CON11     -1.000000     CON12     -1.000000   
    x[2,3]    OBJ       6.054841      CON6      1.000000    
    x[2,3]    CON12     -1.000000   
    MARKER    'MARKER'                'INTORG'
    u[1,1]    OBJ       48.076654     CON1      -1.000000   
    u[1,2]    OBJ       20.066487     CON2      -1.000000   
    u[1,3]    OBJ       32.230043     CON3      -1.000000   
    u[2,1]    OBJ       49.996186     CON4      -1.000000   
    u[2,2]    OBJ       49.466655     CON5      -1.000000   
    u[2,3]    OBJ       27.484319     CON6      -1.000000   
    y[1,1,1]  OBJ       5.956698      CON7      1.105701    
    y[1,1,1]  CON13     1.000000    
    y[1,1,2]  OBJ       5.858716      CON8      1.048955    
    y[1,1,2]  CON14     1.000000    
    y[1,1,3]  OBJ       9.049626      CON9      0.561701    
    y[1,1,3]  CON15     1.000000    
    y[1,2,1]  OBJ       8.046545      CON7      1.076137    
    y[1,2,1]  CON16     1.000000    
    y[1,2,2]  OBJ       6.645272      CON8      1.281606    
    y[1,2,2]  CON17     1.000000    
    y[1,2,3]  OBJ       5.298926      CON9      0.753720    
    y[1,2,3]  CON18     1.000000    
    y[1,3,1]  OBJ       9.555042      CON7      0.723715    
    y[1,3,1]  CON19     1.000000    
    y[1,3,2]  OBJ       5.592370      CON8      0.650979    
    y[1,3,2]  CON20     1.000000    
    y[1,3,3]  OBJ       8.247820      CON9      0.710313    
    y[1,3,3]  CON21     1.000000    
    y[1,4,1]  OBJ       6.084170      CON7      1.495815    
    y[1,4,1]  CON22     1.000000    
    y[1,4,2]  OBJ       5.776399      CON8      1.289393    
    y[1,4,2]  CON23     1.000000    
    y[1,4,3]  OBJ       8.154193      CON9      1.230091    
    y[1,4,3]  CON24     1.000000    
    y[2,1,1]  OBJ       9.402878      CON10     1.105701    
    y[2,1,1]  CON13     1.000000    
    y[2,1,2]  OBJ       9.993616      CON11     1.048955    
    y[2,1,2]  CON14     1.000000    
    y[2,1,3]  OBJ       5.987209      CON12     0.561701    
    y[2,1,3]  CON15     1.000000    
    y[2,2,1]  OBJ       9.250468      CON10     1.076137    
    y[2,2,1]  CON16     1.000000    
    y[2,2,2]  OBJ       9.583434      CON11     1.281606    
    y[2,2,2]  CON17     1.000000    
    y[2,2,3]  OBJ       7.011583      CON12     0.753720    
    y[2,2,3]  CON18     1.000000    
    y[2,3,1]  OBJ       5.126183      CON10     0.723715    
    y[2,3,1]  CON19     1.000000    
    y[2,3,2]  OBJ       8.164696      CON11     0.650979    
    y[2,3,2]  CON20     1.000000    
    y[2,3,3]  OBJ       5.166654      CON12     0.710313    
    y[2,3,3]  CON21     1.000000    
    y[2,4,1]  OBJ       9.677902      CON10     1.495815    
    y[2,4,1]  CON22     1.000000    
    y[2,4,2]  OBJ       8.468463      CON11     1.289393    
    y[2,4,2]  CON23     1.000000    
    y[2,4,3]  OBJ       8.091517      CON12     1.230091    
    y[2,4,3]  CON24     1.000000    
    z[1,1]    OBJ       914.273541    CON13     1.000000    
    z[1,2]    OBJ       658.617856    CON14     1.000000    
    z[1,3]    OBJ       799.328660    CON15     1.000000    
    z[2,1]    OBJ       885.381637    CON16     1.000000    
    z[2,2]    OBJ       838.428517    CON17     1.000000    
    z[2,3]    OBJ       504.939284    CON18     1.000000    
    z[3,1]    OBJ       982.416167    CON19     1.000000    
    z[3,2]    OBJ       874.017738    CON20     1.000000    
    z[3,3]    OBJ       616.303977    CON21     1.000000    
    z[4,1]    OBJ       948.376817    CON22     1.000000    
    z[4,2]    OBJ       905.355538    CON23     1.000000    
    z[4,3]    OBJ       909.708118    CON24     1.000000    
    MARKER    'MARKER'                 'INTEND'
RHS
    RHS       CON1      -0.000000     CON2      -0.000000   
    RHS       CON3      -0.000000     CON4      -0.000000   
    RHS       CON5      -0.000000     CON6      -0.000000   
    RHS       CON7      -0.000000     CON8      -0.000000   
    RHS       CON9      -0.000000     CON10     -0.000000   
    RHS       CON11     -0.000000     CON12     -0.000000   
    RHS       CON13     1.000000      CON14     1.000000    
    RHS       CON15     1.000000      CON16     1.000000    
    RHS       CON17     1.000000      CON18     1.000000    
    RHS       CON19     1.000000      CON20     1.000000    
    RHS       CON21     1.000000      CON22     1.000000    
    RHS       CON23     1.000000      CON24     1.000000    
BOUNDS
 BV BOUND     u[1,1]  
 BV BOUND     u[1,2]  
 BV BOUND     u[1,3]  
 BV BOUND     u[2,1]  
 BV BOUND     u[2,2]  
 BV BOUND     u[2,3]  
 BV BOUND     y[1,1,1]
 BV BOUND     y[1,1,2]
 BV BOUND     y[1,1,3]
 BV BOUND     y[1,2,1]
 BV BOUND     y[1,2,2]
 BV BOUND     y[1,2,3]
 BV BOUND     y[1,3,1]
 BV BOUND     y[1,3,2]
 BV BOUND     y[1,3,3]
 BV BOUND     y[1,4,1]
 BV BOUND     y[1,4,2]
 BV BOUND     y[1,4,3]
 BV BOUND     y[2,1,1]
 BV BOUND     y[2,1,2]
 BV BOUND     y[2,1,3]
 BV BOUND     y[2,2,1]
 BV BOUND     y[2,2,2]
 BV BOUND     y[2,2,3]
 BV BOUND     y[2,3,1]
 BV BOUND     y[2,3,2]
 BV BOUND     y[2,3,3]
 BV BOUND     y[2,4,1]
 BV BOUND     y[2,4,2]
 BV BOUND     y[2,4,3]
 BV BOUND     z[1,1]  
 BV BOUND     z[1,2]  
 BV BOUND     z[1,3]  
 BV BOUND     z[2,1]  
 BV BOUND     z[2,2]  
 BV BOUND     z[2,3]  
 BV BOUND     z[3,1]  
 BV BOUND     z[3,2]  
 BV BOUND     z[3,3]  
 BV BOUND     z[4,1]  
 BV BOUND     z[4,2]  
 BV BOUND     z[4,3]  
ENDATA
